
Gurobi 7.0.2 (linux64, Matlab) logging started Sun Sep  2 08:56:00 2018


Gurobi 7.0.2 (linux64) logging started Sun Sep  2 08:56:00 2018

Optimize a model with 126657 rows, 432068 columns and 1013029 nonzeros
Coefficient statistics:
  Matrix range     [9e-06, 4e+01]
  Objective range  [3e-03, 6e+02]
  Bounds range     [1e-03, 1e+09]
  RHS range        [4e-15, 1e+04]
Iteration    Objective       Primal Inf.    Dual Inf.      Time
       0    6.8296914e+03   0.000000e+00   0.000000e+00      0s

Solved in 0 iterations and 0.07 seconds
Optimal objective  6.829691446e+03
